8322
46, 48, 24, 15, 43, 33, 10, 9, 8, 41, 19, 45, 3, 17, 18, 31, 22, 32, 49, 35, 34, 44, 16, 29, 50, 20, 30, 2, 7, 42, 21, 23, 1, 36, 39, 40, 37, 38, 5, 6, 4, 25, 12, 51, 11, 52, 14, 13, 47, 26, 27, 28
